(set-option :produce-models true)
(set-logic QF_LRA)
(set-info :notes | Strip-packing problem.|)
(declare-fun x0 () Real)
(declare-fun y0 () Real)
(declare-fun x1 () Real)
(declare-fun y1 () Real)
(declare-fun x2 () Real)
(declare-fun y2 () Real)
(declare-fun x3 () Real)
(declare-fun y3 () Real)
(declare-fun x4 () Real)
(declare-fun y4 () Real)
(declare-fun x5 () Real)
(declare-fun y5 () Real)
(declare-fun x6 () Real)
(declare-fun y6 () Real)
(declare-fun x7 () Real)
(declare-fun y7 () Real)
(declare-fun x8 () Real)
(declare-fun y8 () Real)
(declare-fun z () Real)
(declare-fun c () Real)
(assert (and (= c z) (and (>= x0 0) 
(and (>= y0 0) 
(and (>= x1 0) 
(and (>= y1 0) 
(and (>= x2 0) 
(and (>= y2 0) 
(and (>= x3 0) 
(and (>= y3 0) 
(and (>= x4 0) 
(and (>= y4 0) 
(and (>= x5 0) 
(and (>= y5 0) 
(and (>= x6 0) 
(and (>= y6 0) 
(and (>= x7 0) 
(and (>= y7 0) 
(and (>= x8 0) 
(and (>= y8 0) 
(and (>= z 0) 
(and (>= c 0) 
(and (<= (+ x0 0.4887148901) z) 
(and (<= 0.9503260055 y0) 
(and (<= y0 1.5) 
(and (<= x0 (- 3.1282776696 0.4887148901)) 
(and (>= x0 0) 
(and (<= (+ x1 0.7512542402) z) 
(and (<= 0.8620120056 y1) 
(and (<= y1 1.5) 
(and (<= x1 (- 3.1282776696 0.7512542402)) 
(and (>= x1 0) 
(and (<= (+ x2 0.4266433316) z) 
(and (<= 0.5999206973 y2) 
(and (<= y2 1.5) 
(and (<= x2 (- 3.1282776696 0.4266433316)) 
(and (>= x2 0) 
(and (<= (+ x3 0.9331160237) z) 
(and (<= 0.5867571836 y3) 
(and (<= y3 1.5) 
(and (<= x3 (- 3.1282776696 0.9331160237)) 
(and (>= x3 0) 
(and (<= (+ x4 0.3695562814) z) 
(and (<= 0.4957208617 y4) 
(and (<= y4 1.5) 
(and (<= x4 (- 3.1282776696 0.3695562814)) 
(and (>= x4 0) 
(and (<= (+ x5 0.1442017861) z) 
(and (<= 0.3974427709 y5) 
(and (<= y5 1.5) 
(and (<= x5 (- 3.1282776696 0.1442017861)) 
(and (>= x5 0) 
(and (<= (+ x6 0.8456502523) z) 
(and (<= 0.2662551102 y6) 
(and (<= y6 1.5) 
(and (<= x6 (- 3.1282776696 0.8456502523)) 
(and (>= x6 0) 
(and (<= (+ x7 0.9551925156) z) 
(and (<= 0.2640656138 y7) 
(and (<= y7 1.5) 
(and (<= x7 (- 3.1282776696 0.9551925156)) 
(and (>= x7 0) 
(and (<= (+ x8 0.8894952661) z) 
(and (<= 0.2478885386 y8) 
(and (<= y8 1.5) 
(and (<= x8 (- 3.1282776696 0.8894952661)) 
(and (>= x8 0) 
(and (<= c 3.1282776696) 
(and (or (<= (+ x0 0.4887148901) x1) (or (<= (+ x1 0.7512542402) x0) (or (>= (- y0 0.9503260055) y1) (or (>= (- y1 0.8620120056) y0))))) 
(and (or (<= (+ x0 0.4887148901) x2) (or (<= (+ x2 0.4266433316) x0) (or (>= (- y0 0.9503260055) y2) (or (>= (- y2 0.5999206973) y0))))) 
(and (or (<= (+ x0 0.4887148901) x3) (or (<= (+ x3 0.9331160237) x0) (or (>= (- y0 0.9503260055) y3) (or (>= (- y3 0.5867571836) y0))))) 
(and (or (<= (+ x0 0.4887148901) x4) (or (<= (+ x4 0.3695562814) x0) (or (>= (- y0 0.9503260055) y4) (or (>= (- y4 0.4957208617) y0))))) 
(and (or (<= (+ x0 0.4887148901) x5) (or (<= (+ x5 0.1442017861) x0) (or (>= (- y0 0.9503260055) y5) (or (>= (- y5 0.3974427709) y0))))) 
(and (or (<= (+ x0 0.4887148901) x6) (or (<= (+ x6 0.8456502523) x0) (or (>= (- y0 0.9503260055) y6) (or (>= (- y6 0.2662551102) y0))))) 
(and (or (<= (+ x0 0.4887148901) x7) (or (<= (+ x7 0.9551925156) x0) (or (>= (- y0 0.9503260055) y7) (or (>= (- y7 0.2640656138) y0))))) 
(and (or (<= (+ x0 0.4887148901) x8) (or (<= (+ x8 0.8894952661) x0) (or (>= (- y0 0.9503260055) y8) (or (>= (- y8 0.2478885386) y0))))) 
(and (or (<= (+ x1 0.7512542402) x2) (or (<= (+ x2 0.4266433316) x1) (or (>= (- y1 0.8620120056) y2) (or (>= (- y2 0.5999206973) y1))))) 
(and (or (<= (+ x1 0.7512542402) x3) (or (<= (+ x3 0.9331160237) x1) (or (>= (- y1 0.8620120056) y3) (or (>= (- y3 0.5867571836) y1))))) 
(and (or (<= (+ x1 0.7512542402) x4) (or (<= (+ x4 0.3695562814) x1) (or (>= (- y1 0.8620120056) y4) (or (>= (- y4 0.4957208617) y1))))) 
(and (or (<= (+ x1 0.7512542402) x5) (or (<= (+ x5 0.1442017861) x1) (or (>= (- y1 0.8620120056) y5) (or (>= (- y5 0.3974427709) y1))))) 
(and (or (<= (+ x1 0.7512542402) x6) (or (<= (+ x6 0.8456502523) x1) (or (>= (- y1 0.8620120056) y6) (or (>= (- y6 0.2662551102) y1))))) 
(and (or (<= (+ x1 0.7512542402) x7) (or (<= (+ x7 0.9551925156) x1) (or (>= (- y1 0.8620120056) y7) (or (>= (- y7 0.2640656138) y1))))) 
(and (or (<= (+ x1 0.7512542402) x8) (or (<= (+ x8 0.8894952661) x1) (or (>= (- y1 0.8620120056) y8) (or (>= (- y8 0.2478885386) y1))))) 
(and (or (<= (+ x2 0.4266433316) x3) (or (<= (+ x3 0.9331160237) x2) (or (>= (- y2 0.5999206973) y3) (or (>= (- y3 0.5867571836) y2))))) 
(and (or (<= (+ x2 0.4266433316) x4) (or (<= (+ x4 0.3695562814) x2) (or (>= (- y2 0.5999206973) y4) (or (>= (- y4 0.4957208617) y2))))) 
(and (or (<= (+ x2 0.4266433316) x5) (or (<= (+ x5 0.1442017861) x2) (or (>= (- y2 0.5999206973) y5) (or (>= (- y5 0.3974427709) y2))))) 
(and (or (<= (+ x2 0.4266433316) x6) (or (<= (+ x6 0.8456502523) x2) (or (>= (- y2 0.5999206973) y6) (or (>= (- y6 0.2662551102) y2))))) 
(and (or (<= (+ x2 0.4266433316) x7) (or (<= (+ x7 0.9551925156) x2) (or (>= (- y2 0.5999206973) y7) (or (>= (- y7 0.2640656138) y2))))) 
(and (or (<= (+ x2 0.4266433316) x8) (or (<= (+ x8 0.8894952661) x2) (or (>= (- y2 0.5999206973) y8) (or (>= (- y8 0.2478885386) y2))))) 
(and (or (<= (+ x3 0.9331160237) x4) (or (<= (+ x4 0.3695562814) x3) (or (>= (- y3 0.5867571836) y4) (or (>= (- y4 0.4957208617) y3))))) 
(and (or (<= (+ x3 0.9331160237) x5) (or (<= (+ x5 0.1442017861) x3) (or (>= (- y3 0.5867571836) y5) (or (>= (- y5 0.3974427709) y3))))) 
(and (or (<= (+ x3 0.9331160237) x6) (or (<= (+ x6 0.8456502523) x3) (or (>= (- y3 0.5867571836) y6) (or (>= (- y6 0.2662551102) y3))))) 
(and (or (<= (+ x3 0.9331160237) x7) (or (<= (+ x7 0.9551925156) x3) (or (>= (- y3 0.5867571836) y7) (or (>= (- y7 0.2640656138) y3))))) 
(and (or (<= (+ x3 0.9331160237) x8) (or (<= (+ x8 0.8894952661) x3) (or (>= (- y3 0.5867571836) y8) (or (>= (- y8 0.2478885386) y3))))) 
(and (or (<= (+ x4 0.3695562814) x5) (or (<= (+ x5 0.1442017861) x4) (or (>= (- y4 0.4957208617) y5) (or (>= (- y5 0.3974427709) y4))))) 
(and (or (<= (+ x4 0.3695562814) x6) (or (<= (+ x6 0.8456502523) x4) (or (>= (- y4 0.4957208617) y6) (or (>= (- y6 0.2662551102) y4))))) 
(and (or (<= (+ x4 0.3695562814) x7) (or (<= (+ x7 0.9551925156) x4) (or (>= (- y4 0.4957208617) y7) (or (>= (- y7 0.2640656138) y4))))) 
(and (or (<= (+ x4 0.3695562814) x8) (or (<= (+ x8 0.8894952661) x4) (or (>= (- y4 0.4957208617) y8) (or (>= (- y8 0.2478885386) y4))))) 
(and (or (<= (+ x5 0.1442017861) x6) (or (<= (+ x6 0.8456502523) x5) (or (>= (- y5 0.3974427709) y6) (or (>= (- y6 0.2662551102) y5))))) 
(and (or (<= (+ x5 0.1442017861) x7) (or (<= (+ x7 0.9551925156) x5) (or (>= (- y5 0.3974427709) y7) (or (>= (- y7 0.2640656138) y5))))) 
(and (or (<= (+ x5 0.1442017861) x8) (or (<= (+ x8 0.8894952661) x5) (or (>= (- y5 0.3974427709) y8) (or (>= (- y8 0.2478885386) y5))))) 
(and (or (<= (+ x6 0.8456502523) x7) (or (<= (+ x7 0.9551925156) x6) (or (>= (- y6 0.2662551102) y7) (or (>= (- y7 0.2640656138) y6))))) 
(and (or (<= (+ x6 0.8456502523) x8) (or (<= (+ x8 0.8894952661) x6) (or (>= (- y6 0.2662551102) y8) (or (>= (- y8 0.2478885386) y6))))) 
(and (or (<= (+ x7 0.9551925156) x8) (or (<= (+ x8 0.8894952661) x7) (or (>= (- y7 0.2640656138) y8) (or (>= (- y8 0.2478885386) y7))))) ))))))))))))))))))))))))))))))))))))))))))))))))))))))))))))))))))))))))))))))))))))))))))))))))))))))))
(minimize c)
(check-sat)
(get-objectives)
(exit)
